50
    1    42    81
    2    42    42
    3    68    56
    4    68    25
    5    77    14
    6    57    63
    7    17    75
    8    19    41
    9    94    19
   10    34    12
   11    87    25
   12    27    37
   13    99    10
   14    30    86
   15    59     6
   16   100    46
   17    30     7
   18    38    18
   19    86    79
   20    69     8
   21    53    51
   22    59    53
   23    40    38
   24    96   100
   25    57    82
   26    70    70
   27    84    24
   28    47    57
   29    86    15
   30    28    97
   31    61    19
   32    56    77
   33    24    85
   34    75    35
   35    39     6
   36    53    15
   37    85    98
   38    83    14
   39    58     2
   40    47    80
   41    68    53
   42    29    63
   43    49    48
   44     3    59
   45    78    25
   46    11    56
   47    36    71
   48    84    15
   49    12    81
   50    37     2
373
